
Gurobi 9.0.3 (linux64) logging started Tue Oct 27 22:38:45 2020


Gurobi 9.0.3 (linux64) logging started Tue Oct 27 22:39:19 2020


Gurobi 9.0.3 (linux64) logging started Tue Oct 27 22:40:44 2020


Gurobi 9.0.3 (linux64) logging started Tue Oct 27 22:41:48 2020


Gurobi 9.0.3 (linux64) logging started Tue Oct 27 22:46:58 2020


Gurobi 9.0.3 (linux64) logging started Tue Oct 27 22:57:42 2020


Gurobi 9.0.3 (linux64) logging started Tue Oct 27 22:57:54 2020


Gurobi 9.0.3 (linux64) logging started Tue Oct 27 22:58:05 2020


Gurobi 9.0.3 (linux64) logging started Tue Oct 27 22:58:49 2020


Gurobi 9.0.3 (linux64) logging started Tue Oct 27 22:58:57 2020


Gurobi 9.0.3 (linux64) logging started Tue Oct 27 22:59:08 2020


Gurobi 9.0.3 (linux64) logging started Tue Oct 27 22:59:18 2020


Gurobi 9.0.3 (linux64) logging started Tue Oct 27 23:09:10 2020


Gurobi 9.0.3 (linux64) logging started Tue Oct 27 23:09:30 2020


Gurobi 9.0.3 (linux64) logging started Tue Oct 27 23:09:40 2020


Gurobi 9.0.3 (linux64) logging started Tue Oct 27 23:12:16 2020


Gurobi 9.0.3 (linux64) logging started Tue Oct 27 23:12:28 2020


Gurobi 9.0.3 (linux64) logging started Tue Oct 27 23:12:46 2020


Gurobi 9.0.3 (linux64) logging started Tue Oct 27 23:12:57 2020


Gurobi 9.0.3 (linux64) logging started Tue Oct 27 23:13:06 2020


Gurobi 9.0.3 (linux64) logging started Tue Oct 27 23:13:14 2020


Gurobi 9.0.3 (linux64) logging started Tue Oct 27 23:19:53 2020


Gurobi 9.0.3 (linux64) logging started Tue Oct 27 23:45:00 2020


Gurobi 9.0.3 (linux64) logging started Wed Oct 28 15:11:53 2020


Gurobi 9.0.3 (linux64) logging started Wed Oct 28 20:21:37 2020


Gurobi 9.0.3 (linux64) logging started Wed Oct 28 20:38:10 2020


Gurobi 9.0.3 (linux64) logging started Wed Oct 28 20:40:46 2020


Gurobi 9.0.3 (linux64) logging started Wed Oct 28 20:41:51 2020


Gurobi 9.0.3 (linux64) logging started Wed Oct 28 20:57:06 2020


Gurobi 9.0.3 (linux64) logging started Wed Oct 28 21:01:01 2020


Gurobi 9.0.3 (linux64) logging started Wed Oct 28 21:02:25 2020


Gurobi 9.0.3 (linux64) logging started Wed Oct 28 21:03:54 2020


Gurobi 9.0.3 (linux64) logging started Thu Oct 29 21:57:06 2020


Gurobi 9.0.3 (linux64) logging started Thu Oct 29 21:58:41 2020


Gurobi 9.0.3 (linux64) logging started Thu Oct 29 21:59:32 2020


Gurobi 9.0.3 (linux64) logging started Thu Oct 29 22:01:43 2020


Gurobi 9.0.3 (linux64) logging started Thu Oct 29 22:02:28 2020


Gurobi 9.0.3 (linux64) logging started Thu Oct 29 22:03:19 2020


Gurobi 9.0.3 (linux64) logging started Thu Oct 29 22:03:51 2020


Gurobi 9.0.3 (linux64) logging started Thu Oct 29 22:05:09 2020


Gurobi 9.0.3 (linux64) logging started Thu Oct 29 22:06:43 2020


Gurobi 9.0.3 (linux64) logging started Thu Oct 29 22:07:47 2020


Gurobi 9.0.3 (linux64) logging started Thu Oct 29 22:10:21 2020


Gurobi 9.0.3 (linux64) logging started Thu Oct 29 22:10:51 2020


Gurobi 9.0.3 (linux64) logging started Thu Oct 29 22:11:19 2020


Gurobi 9.0.3 (linux64) logging started Thu Oct 29 22:13:26 2020


Gurobi 9.0.3 (linux64) logging started Thu Oct 29 22:13:58 2020


Gurobi 9.0.3 (linux64) logging started Thu Oct 29 22:15:00 2020


Gurobi 9.0.3 (linux64) logging started Thu Oct 29 22:16:28 2020


Gurobi 9.0.3 (linux64) logging started Thu Oct 29 22:17:19 2020


Gurobi 9.0.3 (linux64) logging started Thu Oct 29 22:17:59 2020


Gurobi 9.0.3 (linux64) logging started Fri Oct 30 17:53:41 2020


Gurobi 9.0.3 (linux64) logging started Sun Nov  1 19:53:27 2020


Gurobi 9.0.3 (linux64) logging started Thu Nov  5 12:21:47 2020


Gurobi 9.0.3 (linux64) logging started Thu Nov  5 12:24:15 2020


Gurobi 9.0.3 (linux64) logging started Thu Nov  5 12:25:49 2020


Gurobi 9.0.3 (linux64) logging started Thu Nov  5 12:26:24 2020


Gurobi 9.0.3 (linux64) logging started Thu Nov  5 12:29:18 2020


Gurobi 9.0.3 (linux64) logging started Thu Nov  5 12:32:22 2020


Gurobi 9.0.3 (linux64) logging started Thu Nov  5 12:33:01 2020


Gurobi 9.0.3 (linux64) logging started Thu Nov  5 12:33:55 2020


Gurobi 9.0.3 (linux64) logging started Thu Nov  5 12:38:34 2020


Gurobi 9.0.3 (linux64) logging started Thu Nov  5 12:38:37 2020


Gurobi 9.0.3 (linux64) logging started Thu Nov  5 12:38:40 2020


Gurobi 9.0.3 (linux64) logging started Thu Nov  5 12:38:42 2020


Gurobi 9.0.3 (linux64) logging started Thu Nov  5 12:38:44 2020


Gurobi 9.0.3 (linux64) logging started Thu Nov  5 12:38:46 2020


Gurobi 9.0.3 (linux64) logging started Thu Nov  5 12:39:16 2020


Gurobi 9.0.3 (linux64) logging started Thu Nov  5 12:39:32 2020


Gurobi 9.0.3 (linux64) logging started Thu Nov  5 12:39:47 2020


Gurobi 9.0.3 (linux64) logging started Thu Nov  5 12:39:58 2020


Gurobi 9.0.3 (linux64) logging started Thu Nov  5 12:40:01 2020


Gurobi 9.0.3 (linux64) logging started Thu Nov  5 12:40:04 2020


Gurobi 9.0.3 (linux64) logging started Thu Nov  5 12:40:07 2020


Gurobi 9.0.3 (linux64) logging started Thu Nov  5 12:40:08 2020


Gurobi 9.0.3 (linux64) logging started Thu Nov  5 12:40:10 2020


Gurobi 9.0.3 (linux64) logging started Thu Nov  5 12:40:13 2020


Gurobi 9.0.3 (linux64) logging started Thu Nov  5 12:40:16 2020


Gurobi 9.0.3 (linux64) logging started Thu Nov  5 12:40:18 2020


Gurobi 9.0.3 (linux64) logging started Thu Nov  5 12:40:20 2020


Gurobi 9.0.3 (linux64) logging started Thu Nov  5 12:40:24 2020


Gurobi 9.0.3 (linux64) logging started Thu Nov  5 12:40:25 2020


Gurobi 9.0.3 (linux64) logging started Thu Nov  5 12:41:26 2020


Gurobi 9.0.3 (linux64) logging started Thu Nov  5 12:41:28 2020


Gurobi 9.0.3 (linux64) logging started Thu Nov  5 12:41:30 2020


Gurobi 9.0.3 (linux64) logging started Thu Nov  5 12:41:32 2020


Gurobi 9.0.3 (linux64) logging started Thu Nov  5 12:41:34 2020


Gurobi 9.0.3 (linux64) logging started Thu Nov  5 12:41:36 2020


Gurobi 9.0.3 (linux64) logging started Thu Nov  5 12:41:38 2020


Gurobi 9.0.3 (linux64) logging started Thu Nov  5 12:41:41 2020


Gurobi 9.0.3 (linux64) logging started Thu Nov  5 12:41:43 2020


Gurobi 9.0.3 (linux64) logging started Thu Nov  5 12:41:45 2020


Gurobi 9.0.3 (linux64) logging started Thu Nov  5 12:42:18 2020


Gurobi 9.0.3 (linux64) logging started Thu Nov  5 12:42:26 2020


Gurobi 9.0.3 (linux64) logging started Thu Nov  5 12:43:17 2020


Gurobi 9.0.3 (linux64) logging started Thu Nov  5 12:44:32 2020


Gurobi 9.0.3 (linux64) logging started Thu Nov  5 12:44:40 2020


Gurobi 9.0.3 (linux64) logging started Thu Nov  5 12:44:51 2020


Gurobi 9.0.3 (linux64) logging started Thu Nov  5 12:45:18 2020


Gurobi 9.0.3 (linux64) logging started Thu Nov  5 12:45:21 2020


Gurobi 9.0.3 (linux64) logging started Thu Nov  5 12:45:23 2020


Gurobi 9.0.3 (linux64) logging started Thu Nov  5 12:45:26 2020


Gurobi 9.0.3 (linux64) logging started Thu Nov  5 12:45:29 2020


Gurobi 9.0.3 (linux64) logging started Thu Nov  5 12:45:31 2020


Gurobi 9.0.3 (linux64) logging started Thu Nov  5 12:45:34 2020


Gurobi 9.0.3 (linux64) logging started Thu Nov  5 12:45:36 2020


Gurobi 9.0.3 (linux64) logging started Thu Nov  5 12:45:38 2020


Gurobi 9.0.3 (linux64) logging started Thu Nov  5 12:45:41 2020


Gurobi 9.0.3 (linux64) logging started Thu Nov  5 12:45:42 2020


Gurobi 9.0.3 (linux64) logging started Thu Nov  5 12:45:44 2020


Gurobi 9.0.3 (linux64) logging started Thu Nov  5 12:45:58 2020


Gurobi 9.0.3 (linux64) logging started Thu Nov  5 12:46:00 2020


Gurobi 9.0.3 (linux64) logging started Thu Nov  5 12:46:02 2020


Gurobi 9.0.3 (linux64) logging started Thu Nov  5 12:46:04 2020


Gurobi 9.0.3 (linux64) logging started Thu Nov  5 12:46:08 2020


Gurobi 9.0.3 (linux64) logging started Thu Nov  5 12:46:10 2020


Gurobi 9.0.3 (linux64) logging started Thu Nov  5 12:46:11 2020


Gurobi 9.0.3 (linux64) logging started Thu Nov  5 12:46:14 2020


Gurobi 9.0.3 (linux64) logging started Thu Nov  5 12:46:16 2020


Gurobi 9.0.3 (linux64) logging started Thu Nov  5 12:46:18 2020


Gurobi 9.0.3 (linux64) logging started Thu Nov  5 12:46:20 2020


Gurobi 9.0.3 (linux64) logging started Thu Nov  5 12:46:22 2020


Gurobi 9.0.3 (linux64) logging started Thu Nov  5 12:47:53 2020


Gurobi 9.0.3 (linux64) logging started Thu Nov  5 12:47:55 2020


Gurobi 9.0.3 (linux64) logging started Thu Nov  5 12:47:57 2020


Gurobi 9.0.3 (linux64) logging started Thu Nov  5 12:47:59 2020


Gurobi 9.0.3 (linux64) logging started Thu Nov  5 12:48:01 2020


Gurobi 9.0.3 (linux64) logging started Thu Nov  5 12:48:05 2020


Gurobi 9.0.3 (linux64) logging started Thu Nov  5 12:48:07 2020


Gurobi 9.0.3 (linux64) logging started Thu Nov  5 12:48:09 2020


Gurobi 9.0.3 (linux64) logging started Thu Nov  5 12:48:12 2020


Gurobi 9.0.3 (linux64) logging started Thu Nov  5 12:48:14 2020


Gurobi 9.0.3 (linux64) logging started Thu Nov  5 12:48:54 2020


Gurobi 9.0.3 (linux64) logging started Thu Nov  5 12:48:56 2020


Gurobi 9.0.3 (linux64) logging started Thu Nov  5 12:48:58 2020


Gurobi 9.0.3 (linux64) logging started Thu Nov  5 12:49:01 2020


Gurobi 9.0.3 (linux64) logging started Thu Nov  5 12:49:03 2020


Gurobi 9.0.3 (linux64) logging started Thu Nov  5 12:49:05 2020


Gurobi 9.0.3 (linux64) logging started Thu Nov  5 12:49:07 2020


Gurobi 9.0.3 (linux64) logging started Thu Nov  5 12:49:10 2020


Gurobi 9.0.3 (linux64) logging started Thu Nov  5 12:49:12 2020


Gurobi 9.0.3 (linux64) logging started Thu Nov  5 12:49:14 2020


Gurobi 9.0.3 (linux64) logging started Thu Nov  5 12:49:27 2020


Gurobi 9.0.3 (linux64) logging started Thu Nov  5 12:49:29 2020


Gurobi 9.0.3 (linux64) logging started Thu Nov  5 12:49:31 2020


Gurobi 9.0.3 (linux64) logging started Thu Nov  5 12:49:34 2020


Gurobi 9.0.3 (linux64) logging started Thu Nov  5 12:49:36 2020


Gurobi 9.0.3 (linux64) logging started Thu Nov  5 12:49:39 2020


Gurobi 9.0.3 (linux64) logging started Thu Nov  5 12:49:42 2020


Gurobi 9.0.3 (linux64) logging started Thu Nov  5 12:49:44 2020


Gurobi 9.0.3 (linux64) logging started Thu Nov  5 12:49:47 2020


Gurobi 9.0.3 (linux64) logging started Thu Nov  5 12:49:49 2020


Gurobi 9.0.3 (linux64) logging started Thu Nov  5 12:50:04 2020


Gurobi 9.0.3 (linux64) logging started Thu Nov  5 12:50:05 2020


Gurobi 9.0.3 (linux64) logging started Thu Nov  5 12:50:07 2020


Gurobi 9.0.3 (linux64) logging started Thu Nov  5 12:50:10 2020


Gurobi 9.0.3 (linux64) logging started Thu Nov  5 12:50:12 2020


Gurobi 9.0.3 (linux64) logging started Thu Nov  5 12:50:15 2020


Gurobi 9.0.3 (linux64) logging started Thu Nov  5 12:50:17 2020


Gurobi 9.0.3 (linux64) logging started Thu Nov  5 12:50:19 2020


Gurobi 9.0.3 (linux64) logging started Thu Nov  5 12:50:21 2020


Gurobi 9.0.3 (linux64) logging started Thu Nov  5 12:50:23 2020


Gurobi 9.0.3 (linux64) logging started Thu Nov  5 12:50:26 2020


Gurobi 9.0.3 (linux64) logging started Thu Nov  5 12:51:04 2020


Gurobi 9.0.3 (linux64) logging started Thu Nov  5 12:51:06 2020


Gurobi 9.0.3 (linux64) logging started Thu Nov  5 12:51:08 2020


Gurobi 9.0.3 (linux64) logging started Thu Nov  5 12:51:11 2020


Gurobi 9.0.3 (linux64) logging started Thu Nov  5 12:51:13 2020


Gurobi 9.0.3 (linux64) logging started Thu Nov  5 12:51:15 2020


Gurobi 9.0.3 (linux64) logging started Thu Nov  5 12:51:17 2020


Gurobi 9.0.3 (linux64) logging started Thu Nov  5 12:51:19 2020


Gurobi 9.0.3 (linux64) logging started Thu Nov  5 12:51:21 2020


Gurobi 9.0.3 (linux64) logging started Thu Nov  5 12:51:23 2020


Gurobi 9.0.3 (linux64) logging started Thu Nov  5 12:51:38 2020


Gurobi 9.0.3 (linux64) logging started Thu Nov  5 12:51:40 2020


Gurobi 9.0.3 (linux64) logging started Thu Nov  5 12:51:42 2020


Gurobi 9.0.3 (linux64) logging started Thu Nov  5 12:52:17 2020


Gurobi 9.0.3 (linux64) logging started Thu Nov  5 12:52:20 2020


Gurobi 9.0.3 (linux64) logging started Thu Nov  5 12:52:21 2020


Gurobi 9.0.3 (linux64) logging started Thu Nov  5 12:52:24 2020


Gurobi 9.0.3 (linux64) logging started Thu Nov  5 12:52:26 2020


Gurobi 9.0.3 (linux64) logging started Thu Nov  5 12:52:28 2020


Gurobi 9.0.3 (linux64) logging started Thu Nov  5 12:52:30 2020


Gurobi 9.0.3 (linux64) logging started Thu Nov  5 12:52:32 2020


Gurobi 9.0.3 (linux64) logging started Thu Nov  5 12:52:34 2020


Gurobi 9.0.3 (linux64) logging started Thu Nov  5 12:52:36 2020


Gurobi 9.0.3 (linux64) logging started Thu Nov  5 12:52:49 2020


Gurobi 9.0.3 (linux64) logging started Thu Nov  5 12:52:51 2020


Gurobi 9.0.3 (linux64) logging started Thu Nov  5 12:52:53 2020


Gurobi 9.0.3 (linux64) logging started Thu Nov  5 12:52:55 2020


Gurobi 9.0.3 (linux64) logging started Thu Nov  5 12:52:57 2020


Gurobi 9.0.3 (linux64) logging started Thu Nov  5 12:52:59 2020


Gurobi 9.0.3 (linux64) logging started Thu Nov  5 12:53:01 2020


Gurobi 9.0.3 (linux64) logging started Thu Nov  5 12:53:03 2020


Gurobi 9.0.3 (linux64) logging started Thu Nov  5 12:53:05 2020


Gurobi 9.0.3 (linux64) logging started Thu Nov  5 12:53:07 2020


Gurobi 9.0.3 (linux64) logging started Thu Nov  5 12:54:11 2020


Gurobi 9.0.3 (linux64) logging started Thu Nov  5 12:54:12 2020


Gurobi 9.0.3 (linux64) logging started Thu Nov  5 12:54:14 2020


Gurobi 9.0.3 (linux64) logging started Thu Nov  5 12:54:17 2020


Gurobi 9.0.3 (linux64) logging started Thu Nov  5 12:54:19 2020


Gurobi 9.0.3 (linux64) logging started Thu Nov  5 12:54:21 2020


Gurobi 9.0.3 (linux64) logging started Thu Nov  5 12:54:23 2020


Gurobi 9.0.3 (linux64) logging started Thu Nov  5 12:54:25 2020


Gurobi 9.0.3 (linux64) logging started Thu Nov  5 12:54:27 2020


Gurobi 9.0.3 (linux64) logging started Thu Nov  5 12:54:29 2020


Gurobi 9.0.3 (linux64) logging started Thu Nov  5 12:55:04 2020


Gurobi 9.0.3 (linux64) logging started Thu Nov  5 12:55:10 2020


Gurobi 9.0.3 (linux64) logging started Thu Nov  5 12:55:16 2020


Gurobi 9.0.3 (linux64) logging started Thu Nov  5 12:55:22 2020


Gurobi 9.0.3 (linux64) logging started Thu Nov  5 12:55:28 2020


Gurobi 9.0.3 (linux64) logging started Thu Nov  5 12:55:34 2020


Gurobi 9.0.3 (linux64) logging started Thu Nov  5 12:55:40 2020


Gurobi 9.0.3 (linux64) logging started Thu Nov  5 12:55:46 2020


Gurobi 9.0.3 (linux64) logging started Thu Nov  5 12:55:53 2020


Gurobi 9.0.3 (linux64) logging started Thu Nov  5 12:55:59 2020


Gurobi 9.0.3 (linux64) logging started Thu Nov  5 12:58:11 2020


Gurobi 9.0.3 (linux64) logging started Thu Nov  5 12:58:14 2020


Gurobi 9.0.3 (linux64) logging started Thu Nov  5 12:58:18 2020


Gurobi 9.0.3 (linux64) logging started Thu Nov  5 12:58:21 2020


Gurobi 9.0.3 (linux64) logging started Thu Nov  5 12:58:24 2020


Gurobi 9.0.3 (linux64) logging started Thu Nov  5 12:58:27 2020


Gurobi 9.0.3 (linux64) logging started Thu Nov  5 12:58:35 2020


Gurobi 9.0.3 (linux64) logging started Thu Nov  5 12:58:38 2020


Gurobi 9.0.3 (linux64) logging started Thu Nov  5 12:58:41 2020


Gurobi 9.0.3 (linux64) logging started Thu Nov  5 12:58:44 2020


Gurobi 9.0.3 (linux64) logging started Thu Nov  5 12:59:04 2020


Gurobi 9.0.3 (linux64) logging started Thu Nov  5 12:59:07 2020


Gurobi 9.0.3 (linux64) logging started Thu Nov  5 12:59:10 2020


Gurobi 9.0.3 (linux64) logging started Thu Nov  5 12:59:13 2020


Gurobi 9.0.3 (linux64) logging started Thu Nov  5 12:59:16 2020


Gurobi 9.0.3 (linux64) logging started Thu Nov  5 12:59:20 2020


Gurobi 9.0.3 (linux64) logging started Thu Nov  5 12:59:23 2020


Gurobi 9.0.3 (linux64) logging started Thu Nov  5 12:59:26 2020


Gurobi 9.0.3 (linux64) logging started Thu Nov  5 12:59:29 2020


Gurobi 9.0.3 (linux64) logging started Thu Nov  5 12:59:32 2020


Gurobi 9.0.3 (linux64) logging started Thu Nov  5 12:59:49 2020


Gurobi 9.0.3 (linux64) logging started Thu Nov  5 12:59:57 2020


Gurobi 9.0.3 (linux64) logging started Thu Nov  5 13:00:00 2020


Gurobi 9.0.3 (linux64) logging started Thu Nov  5 13:00:07 2020


Gurobi 9.0.3 (linux64) logging started Thu Nov  5 13:00:10 2020


Gurobi 9.0.3 (linux64) logging started Thu Nov  5 13:00:13 2020


Gurobi 9.0.3 (linux64) logging started Thu Nov  5 13:00:16 2020


Gurobi 9.0.3 (linux64) logging started Thu Nov  5 13:00:19 2020


Gurobi 9.0.3 (linux64) logging started Thu Nov  5 13:00:23 2020


Gurobi 9.0.3 (linux64) logging started Thu Nov  5 13:00:26 2020


Gurobi 9.0.3 (linux64) logging started Thu Nov  5 14:08:59 2020


Gurobi 9.0.3 (linux64) logging started Thu Nov  5 14:09:02 2020


Gurobi 9.0.3 (linux64) logging started Thu Nov  5 14:09:04 2020


Gurobi 9.0.3 (linux64) logging started Thu Nov  5 14:09:07 2020


Gurobi 9.0.3 (linux64) logging started Thu Nov  5 14:09:10 2020


Gurobi 9.0.3 (linux64) logging started Thu Nov  5 14:09:13 2020


Gurobi 9.0.3 (linux64) logging started Thu Nov  5 14:09:16 2020


Gurobi 9.0.3 (linux64) logging started Thu Nov  5 14:09:19 2020


Gurobi 9.0.3 (linux64) logging started Thu Nov  5 14:09:21 2020


Gurobi 9.0.3 (linux64) logging started Thu Nov  5 14:09:24 2020


Gurobi 9.0.3 (linux64) logging started Thu Nov  5 14:11:40 2020


Gurobi 9.0.3 (linux64) logging started Thu Nov  5 14:11:42 2020


Gurobi 9.0.3 (linux64) logging started Thu Nov  5 14:11:45 2020


Gurobi 9.0.3 (linux64) logging started Thu Nov  5 14:11:47 2020


Gurobi 9.0.3 (linux64) logging started Thu Nov  5 14:11:49 2020


Gurobi 9.0.3 (linux64) logging started Thu Nov  5 14:11:51 2020


Gurobi 9.0.3 (linux64) logging started Thu Nov  5 14:11:53 2020


Gurobi 9.0.3 (linux64) logging started Thu Nov  5 14:11:56 2020


Gurobi 9.0.3 (linux64) logging started Thu Nov  5 14:11:58 2020


Gurobi 9.0.3 (linux64) logging started Thu Nov  5 14:12:00 2020


Gurobi 9.0.3 (linux64) logging started Thu Nov  5 14:12:31 2020


Gurobi 9.0.3 (linux64) logging started Thu Nov  5 14:12:33 2020


Gurobi 9.0.3 (linux64) logging started Thu Nov  5 14:12:35 2020


Gurobi 9.0.3 (linux64) logging started Thu Nov  5 14:12:37 2020


Gurobi 9.0.3 (linux64) logging started Thu Nov  5 14:12:39 2020


Gurobi 9.0.3 (linux64) logging started Thu Nov  5 14:12:41 2020


Gurobi 9.0.3 (linux64) logging started Thu Nov  5 14:12:44 2020


Gurobi 9.0.3 (linux64) logging started Thu Nov  5 14:12:46 2020


Gurobi 9.0.3 (linux64) logging started Thu Nov  5 14:12:48 2020


Gurobi 9.0.3 (linux64) logging started Thu Nov  5 14:12:51 2020


Gurobi 9.0.3 (linux64) logging started Thu Nov  5 14:13:26 2020


Gurobi 9.0.3 (linux64) logging started Thu Nov  5 14:13:28 2020


Gurobi 9.0.3 (linux64) logging started Thu Nov  5 14:13:30 2020


Gurobi 9.0.3 (linux64) logging started Thu Nov  5 14:13:32 2020


Gurobi 9.0.3 (linux64) logging started Thu Nov  5 14:13:34 2020


Gurobi 9.0.3 (linux64) logging started Thu Nov  5 14:13:35 2020


Gurobi 9.0.3 (linux64) logging started Thu Nov  5 14:13:37 2020


Gurobi 9.0.3 (linux64) logging started Thu Nov  5 14:13:40 2020


Gurobi 9.0.3 (linux64) logging started Thu Nov  5 14:13:42 2020


Gurobi 9.0.3 (linux64) logging started Thu Nov  5 14:13:44 2020


Gurobi 9.0.3 (linux64) logging started Thu Nov  5 14:13:46 2020


Gurobi 9.0.3 (linux64) logging started Thu Nov  5 14:15:37 2020


Gurobi 9.0.3 (linux64) logging started Thu Nov  5 14:15:46 2020


Gurobi 9.0.3 (linux64) logging started Thu Nov  5 14:15:55 2020


Gurobi 9.0.3 (linux64) logging started Thu Nov  5 14:16:04 2020


Gurobi 9.0.3 (linux64) logging started Thu Nov  5 14:16:12 2020


Gurobi 9.0.3 (linux64) logging started Thu Nov  5 14:16:21 2020


Gurobi 9.0.3 (linux64) logging started Thu Nov  5 14:16:23 2020


Gurobi 9.0.3 (linux64) logging started Thu Nov  5 14:16:32 2020


Gurobi 9.0.3 (linux64) logging started Thu Nov  5 14:16:40 2020


Gurobi 9.0.3 (linux64) logging started Thu Nov  5 14:16:49 2020


Gurobi 9.0.3 (linux64) logging started Thu Nov  5 14:20:42 2020


Gurobi 9.0.3 (linux64) logging started Thu Nov  5 14:20:51 2020


Gurobi 9.0.3 (linux64) logging started Thu Nov  5 14:21:00 2020


Gurobi 9.0.3 (linux64) logging started Thu Nov  5 14:21:10 2020


Gurobi 9.0.3 (linux64) logging started Thu Nov  5 14:21:13 2020


Gurobi 9.0.3 (linux64) logging started Thu Nov  5 14:21:21 2020


Gurobi 9.0.3 (linux64) logging started Thu Nov  5 14:21:30 2020


Gurobi 9.0.3 (linux64) logging started Thu Nov  5 14:21:34 2020


Gurobi 9.0.3 (linux64) logging started Thu Nov  5 14:21:42 2020


Gurobi 9.0.3 (linux64) logging started Thu Nov  5 14:21:51 2020


Gurobi 9.0.3 (linux64) logging started Thu Nov  5 14:23:05 2020


Gurobi 9.0.3 (linux64) logging started Thu Nov  5 14:23:07 2020


Gurobi 9.0.3 (linux64) logging started Thu Nov  5 14:23:08 2020


Gurobi 9.0.3 (linux64) logging started Thu Nov  5 14:23:12 2020


Gurobi 9.0.3 (linux64) logging started Thu Nov  5 14:23:14 2020


Gurobi 9.0.3 (linux64) logging started Thu Nov  5 14:23:16 2020


Gurobi 9.0.3 (linux64) logging started Thu Nov  5 14:23:18 2020


Gurobi 9.0.3 (linux64) logging started Thu Nov  5 14:23:20 2020


Gurobi 9.0.3 (linux64) logging started Thu Nov  5 14:23:22 2020


Gurobi 9.0.3 (linux64) logging started Thu Nov  5 14:23:23 2020


Gurobi 9.0.3 (linux64) logging started Thu Nov  5 14:23:25 2020


Gurobi 9.0.3 (linux64) logging started Thu Nov  5 14:23:27 2020


Gurobi 9.0.3 (linux64) logging started Thu Nov  5 14:23:29 2020


Gurobi 9.0.3 (linux64) logging started Thu Nov  5 14:23:31 2020


Gurobi 9.0.3 (linux64) logging started Thu Nov  5 14:23:34 2020


Gurobi 9.0.3 (linux64) logging started Thu Nov  5 14:38:53 2020


Gurobi 9.0.3 (linux64) logging started Thu Nov  5 14:38:56 2020


Gurobi 9.0.3 (linux64) logging started Thu Nov  5 14:38:58 2020


Gurobi 9.0.3 (linux64) logging started Thu Nov  5 14:39:01 2020


Gurobi 9.0.3 (linux64) logging started Thu Nov  5 14:39:04 2020


Gurobi 9.0.3 (linux64) logging started Thu Nov  5 14:39:07 2020


Gurobi 9.0.3 (linux64) logging started Thu Nov  5 14:39:09 2020


Gurobi 9.0.3 (linux64) logging started Thu Nov  5 14:39:12 2020


Gurobi 9.0.3 (linux64) logging started Thu Nov  5 14:39:15 2020


Gurobi 9.0.3 (linux64) logging started Thu Nov  5 14:39:18 2020


Gurobi 9.0.3 (linux64) logging started Thu Nov  5 14:40:41 2020


Gurobi 9.0.3 (linux64) logging started Thu Nov  5 14:40:44 2020


Gurobi 9.0.3 (linux64) logging started Thu Nov  5 14:40:47 2020


Gurobi 9.0.3 (linux64) logging started Thu Nov  5 14:40:50 2020


Gurobi 9.0.3 (linux64) logging started Thu Nov  5 14:40:52 2020


Gurobi 9.0.3 (linux64) logging started Thu Nov  5 14:40:55 2020


Gurobi 9.0.3 (linux64) logging started Thu Nov  5 14:40:58 2020


Gurobi 9.0.3 (linux64) logging started Thu Nov  5 14:41:00 2020


Gurobi 9.0.3 (linux64) logging started Thu Nov  5 14:41:03 2020


Gurobi 9.0.3 (linux64) logging started Thu Nov  5 14:41:06 2020


Gurobi 9.0.3 (linux64) logging started Thu Nov  5 14:42:32 2020


Gurobi 9.0.3 (linux64) logging started Thu Nov  5 14:42:35 2020


Gurobi 9.0.3 (linux64) logging started Thu Nov  5 14:42:38 2020


Gurobi 9.0.3 (linux64) logging started Thu Nov  5 14:42:42 2020


Gurobi 9.0.3 (linux64) logging started Thu Nov  5 14:42:45 2020


Gurobi 9.0.3 (linux64) logging started Thu Nov  5 14:42:48 2020


Gurobi 9.0.3 (linux64) logging started Thu Nov  5 14:42:51 2020


Gurobi 9.0.3 (linux64) logging started Thu Nov  5 14:42:54 2020


Gurobi 9.0.3 (linux64) logging started Thu Nov  5 14:42:57 2020


Gurobi 9.0.3 (linux64) logging started Thu Nov  5 14:43:00 2020


Gurobi 9.0.3 (linux64) logging started Sun Nov  8 17:21:02 2020


Gurobi 9.0.3 (linux64) logging started Sun Nov  8 17:21:04 2020


Gurobi 9.0.3 (linux64) logging started Sun Nov  8 17:21:06 2020


Gurobi 9.0.3 (linux64) logging started Sun Nov  8 17:21:17 2020


Gurobi 9.0.3 (linux64) logging started Sun Nov  8 17:22:12 2020


Gurobi 9.0.3 (linux64) logging started Sun Nov  8 17:22:36 2020


Gurobi 9.0.3 (linux64) logging started Sun Nov  8 17:26:43 2020


Gurobi 9.0.3 (linux64) logging started Sun Nov  8 17:26:44 2020


Gurobi 9.0.3 (linux64) logging started Sun Nov  8 17:27:00 2020


Gurobi 9.0.3 (linux64) logging started Sun Nov  8 17:28:24 2020


Gurobi 9.0.3 (linux64) logging started Sun Nov  8 17:28:36 2020


Gurobi 9.0.3 (linux64) logging started Sun Nov  8 17:28:52 2020


Gurobi 9.0.3 (linux64) logging started Sun Nov  8 17:29:04 2020


Gurobi 9.0.3 (linux64) logging started Sun Nov  8 17:29:17 2020


Gurobi 9.0.3 (linux64) logging started Sun Nov  8 17:29:29 2020


Gurobi 9.0.3 (linux64) logging started Sun Nov  8 17:29:50 2020


Gurobi 9.0.3 (linux64) logging started Sun Nov  8 18:42:20 2020


Gurobi 9.0.3 (linux64) logging started Sun Nov  8 18:50:12 2020


Gurobi 9.0.3 (linux64) logging started Sun Nov  8 21:32:22 2020


Gurobi 9.0.3 (linux64) logging started Sun Nov  8 21:32:50 2020


Gurobi 9.0.3 (linux64) logging started Sun Nov  8 21:33:34 2020

